p cnf 69 207
-3 1 0
-3 -2 0
-1 2 3 0
7 5 0
7 6 0
-5 -6 -7 0
8 4 0
8 7 0
-4 -7 -8 0
-3 8 -9 0
3 -8 -9 0
-3 -8 9 0
3 8 9 0
-10 5 -11 0
10 -5 -11 0
-10 -5 11 0
10 5 11 0
12 -9 0
12 11 0
9 -11 -12 0
10 -1 -13 0
-10 1 -13 0
10 1 13 0
-10 -1 13 0
-6 14 -15 0
6 -14 -15 0
-6 -14 15 0
6 14 15 0
16 -15 0
16 -2 0
15 2 -16 0
17 -13 0
17 16 0
13 -16 -17 0
18 19 -20 0
-18 -19 -20 0
18 -19 20 0
-18 19 20 0
-21 -17 0
-21 20 0
17 -20 21 0
-12 -21 -22 0
12 21 -22 0
-12 21 22 0
12 -21 22 0
-1 15 -23 0
1 -15 -23 0
-1 -15 23 0
1 15 23 0
-24 13 0
-24 23 0
-13 -23 24 0
26 25 0
26 13 0
-25 -13 -26 0
24 -26 -27 0
-24 26 -27 0
24 26 27 0
-24 -26 27 0
-28 -7 0
-28 10 0
7 -10 28 0
29 28 0
29 -18 0
-28 18 -29 0
-32 -30 0
-32 31 0
30 -31 32 0
33 -19 0
33 -32 0
19 32 -33 0
-29 -33 -34 0
29 33 -34 0
-29 33 34 0
29 -33 34 0
35 27 0
35 -34 0
-27 34 -35 0
-36 22 0
-36 35 0
-22 -35 36 0
-37 6 0
-37 -32 0
-6 32 37 0
40 38 0
40 -39 0
-38 39 -40 0
-41 15 -42 0
41 -15 -42 0
-41 -15 42 0
41 15 42 0
42 13 -43 0
-42 -13 -43 0
42 -13 43 0
-42 13 43 0
-44 31 0
-44 -38 0
-31 38 44 0
46 44 0
46 45 0
-44 -45 -46 0
47 43 0
47 46 0
-43 -46 -47 0
48 40 0
48 -47 0
-40 47 -48 0
37 48 -49 0
-37 -48 -49 0
37 -48 49 0
-37 48 49 0
-50 19 0
-50 41 0
-19 -41 50 0
51 39 0
51 28 0
-39 -28 -51 0
-52 14 0
-52 51 0
-14 -51 52 0
52 -16 -53 0
-52 16 -53 0
52 16 53 0
-52 -16 53 0
38 10 -54 0
-38 -10 -54 0
38 -10 54 0
-38 10 54 0
5 -6 -55 0
-5 6 -55 0
5 6 55 0
-5 -6 55 0
56 54 0
56 -55 0
-54 55 -56 0
57 -42 0
57 20 0
42 -20 -57 0
-56 -57 -58 0
56 57 -58 0
-56 57 58 0
56 -57 58 0
59 -19 0
59 -1 0
19 1 -59 0
-60 -59 0
-60 20 0
59 -20 60 0
61 19 0
61 -6 0
-19 6 -61 0
-62 -45 0
-62 -19 0
45 19 62 0
61 62 -63 0
-61 -62 -63 0
61 -62 63 0
-61 62 63 0
64 -60 0
64 -63 0
60 63 -64 0
-58 64 -65 0
58 -64 -65 0
-58 -64 65 0
58 64 65 0
-53 -65 -66 0
53 65 -66 0
-53 65 66 0
53 -65 66 0
-50 -66 -67 0
50 66 -67 0
-50 66 67 0
50 -66 67 0
68 49 0
68 -67 0
-49 67 -68 0
69 36 0
69 -68 0
-36 68 -69 0
-46 -37 41 0
-21 -26 62 0
3 69 -57 32 -5 0
-6 -39 64 0
-2 -3 -35 -40 0
-40 -15 -31 43 0
37 -13 -21 0
55 25 0
-7 64 13 32 -48 -49 0
39 52 -5 0
-47 -43 -53 -36 5 0
48 53 60 22 -4 0
37 54 17 -21 30 -67 0
-31 11 -10 28 34 0
57 31 0
64 -53 17 0
-27 42 6 58 -2 -31 0
43 -51 -44 -22 0
-19 -3 55 0
53 -12 -42 -20 -18 0
69 57 1 0
50 -53 0
-20 -64 21 0
-5 30 12 -8 -24 37 0
16 69 -15 0
-58 -33 25 0
46 -32 -17 45 0
69 0
